
;this file is automatically generated: Tue Mar 02 15:25:52 CST 2021

;declarations generated

(declare-fun oclExcludes ( Int Int) Bool)
(declare-fun type_a5681967_6b66_42b2_af89_b0c1811f7c08_Class7 ( Int) Bool)
(declare-fun type_a5681967_6b66_42b2_af89_b0c1811f7c08_Class8 ( Int) Bool)
(declare-fun type_a5681967_6b66_42b2_af89_b0c1811f7c08_Class9 ( Int) Bool)
(declare-fun Cardinality ( Int) Int)
(declare-fun type_a5681967_6b66_42b2_af89_b0c1811f7c08_Class3 ( Int) Bool)
(declare-fun type_a5681967_6b66_42b2_af89_b0c1811f7c08_Class4 ( Int) Bool)
(declare-fun type_a5681967_6b66_42b2_af89_b0c1811f7c08_Class5 ( Int) Bool)
(declare-fun type_a5681967_6b66_42b2_af89_b0c1811f7c08_Class6 ( Int) Bool)
(declare-fun type_a5681967_6b66_42b2_af89_b0c1811f7c08_Class0 ( Int) Bool)
(declare-fun type_a5681967_6b66_42b2_af89_b0c1811f7c08_Class1 ( Int) Bool)
(declare-fun type_a5681967_6b66_42b2_af89_b0c1811f7c08_Class2 ( Int) Bool)
(declare-fun obj_91591f13_4e95_4fc4_9c7d_1509c5034d9e ( Int) Int)
(declare-fun type_a5681967_6b66_42b2_af89_b0c1811f7c08_Class50 ( Int) Bool)
(declare-fun type_a5681967_6b66_42b2_af89_b0c1811f7c08_Class51 ( Int) Bool)
(declare-fun type_a5681967_6b66_42b2_af89_b0c1811f7c08_Class52 ( Int) Bool)
(declare-fun type_a5681967_6b66_42b2_af89_b0c1811f7c08_Class53 ( Int) Bool)
(declare-fun type_a5681967_6b66_42b2_af89_b0c1811f7c08_Class54 ( Int) Bool)
(declare-fun type_a5681967_6b66_42b2_af89_b0c1811f7c08_Class55 ( Int) Bool)
(declare-fun type_a5681967_6b66_42b2_af89_b0c1811f7c08_Class20 ( Int) Bool)
(declare-fun type_a5681967_6b66_42b2_af89_b0c1811f7c08_Class21 ( Int) Bool)
(declare-fun type_a5681967_6b66_42b2_af89_b0c1811f7c08_Class22 ( Int) Bool)
(declare-fun type_a5681967_6b66_42b2_af89_b0c1811f7c08_Class23 ( Int) Bool)
(declare-fun type_a5681967_6b66_42b2_af89_b0c1811f7c08_Class24 ( Int) Bool)
(declare-fun type_a5681967_6b66_42b2_af89_b0c1811f7c08_Class25 ( Int) Bool)
(declare-fun type_a5681967_6b66_42b2_af89_b0c1811f7c08_Class26 ( Int) Bool)
(declare-fun type_a5681967_6b66_42b2_af89_b0c1811f7c08_Class27 ( Int) Bool)
(declare-fun type_a5681967_6b66_42b2_af89_b0c1811f7c08_Class28 ( Int) Bool)
(declare-fun type_a5681967_6b66_42b2_af89_b0c1811f7c08_Class29 ( Int) Bool)
(declare-fun type_a5681967_6b66_42b2_af89_b0c1811f7c08_Class10 ( Int) Bool)
(declare-fun type_a5681967_6b66_42b2_af89_b0c1811f7c08_Class11 ( Int) Bool)
(declare-fun type_a5681967_6b66_42b2_af89_b0c1811f7c08_Class12 ( Int) Bool)
(declare-fun type_a5681967_6b66_42b2_af89_b0c1811f7c08_Class13 ( Int) Bool)
(declare-fun type_a5681967_6b66_42b2_af89_b0c1811f7c08_Class14 ( Int) Bool)
(declare-fun type_a5681967_6b66_42b2_af89_b0c1811f7c08_Class15 ( Int) Bool)
(declare-fun type_a5681967_6b66_42b2_af89_b0c1811f7c08_Class16 ( Int) Bool)
(declare-fun type_a5681967_6b66_42b2_af89_b0c1811f7c08_Class17 ( Int) Bool)
(declare-fun type_a5681967_6b66_42b2_af89_b0c1811f7c08_Class18 ( Int) Bool)
(declare-fun type_a5681967_6b66_42b2_af89_b0c1811f7c08_Class19 ( Int) Bool)
(declare-fun class43_Class43BoolAttr0 ( Int) Bool)
(declare-fun class43_Class43BoolAttr1 ( Int) Bool)
(declare-fun type_a5681967_6b66_42b2_af89_b0c1811f7c08_Class40 ( Int) Bool)
(declare-fun type_a5681967_6b66_42b2_af89_b0c1811f7c08_Class41 ( Int) Bool)
(declare-fun type_a5681967_6b66_42b2_af89_b0c1811f7c08_Class42 ( Int) Bool)
(declare-fun type_a5681967_6b66_42b2_af89_b0c1811f7c08_Class43 ( Int) Bool)
(declare-fun type_a5681967_6b66_42b2_af89_b0c1811f7c08_Class44 ( Int) Bool)
(declare-fun type_a5681967_6b66_42b2_af89_b0c1811f7c08_Class45 ( Int) Bool)
(declare-fun type_a5681967_6b66_42b2_af89_b0c1811f7c08_Class46 ( Int) Bool)
(declare-fun type_a5681967_6b66_42b2_af89_b0c1811f7c08_Class47 ( Int) Bool)
(declare-fun type_a5681967_6b66_42b2_af89_b0c1811f7c08_Class48 ( Int) Bool)
(declare-fun type_a5681967_6b66_42b2_af89_b0c1811f7c08_Class49 ( Int) Bool)
(declare-fun type_a5681967_6b66_42b2_af89_b0c1811f7c08_Class30 ( Int) Bool)
(declare-fun type_a5681967_6b66_42b2_af89_b0c1811f7c08_Class31 ( Int) Bool)
(declare-fun type_a5681967_6b66_42b2_af89_b0c1811f7c08_Class32 ( Int) Bool)
(declare-fun type_a5681967_6b66_42b2_af89_b0c1811f7c08_Class33 ( Int) Bool)
(declare-fun type_a5681967_6b66_42b2_af89_b0c1811f7c08_Class34 ( Int) Bool)
(declare-fun type_a5681967_6b66_42b2_af89_b0c1811f7c08_Class35 ( Int) Bool)
(declare-fun type_a5681967_6b66_42b2_af89_b0c1811f7c08_Class36 ( Int) Bool)
(declare-fun type_a5681967_6b66_42b2_af89_b0c1811f7c08_Class37 ( Int) Bool)
(declare-fun type_a5681967_6b66_42b2_af89_b0c1811f7c08_Class38 ( Int) Bool)
(declare-fun type_a5681967_6b66_42b2_af89_b0c1811f7c08_Class39 ( Int) Bool)
(declare-fun oclSelect ( Int Bool) Int)
(declare-fun Enum0 ( Int) Int)
(declare-fun Enum1 ( Int) Int)
(declare-fun Enum2 ( Int) Int)
(declare-fun container_ ( Int) Int)
(declare-fun oclIncludes ( Int Int) Bool)
(declare-fun ObjAt ( Int Int) Int)

;formula(s) generated
(assert (! (exists ((c1 Int)(c2 Int)) (and (and ( type_a5681967_6b66_42b2_af89_b0c1811f7c08_Class43 c1 )  ( type_a5681967_6b66_42b2_af89_b0c1811f7c08_Class43 c2 ) ) (or ( class43_Class43BoolAttr0 ( obj_91591f13_4e95_4fc4_9c7d_1509c5034d9e c1 )  )  ( class43_Class43BoolAttr1 ( obj_91591f13_4e95_4fc4_9c7d_1509c5034d9e c2 )  ) ))):named l0))
(assert (! (exists ((o Int)) ( type_a5681967_6b66_42b2_af89_b0c1811f7c08_Class0 ( obj_91591f13_4e95_4fc4_9c7d_1509c5034d9e o )  ) ):named c0))
(assert (! (exists ((o Int)) (and (and (and (and (and ( type_a5681967_6b66_42b2_af89_b0c1811f7c08_Class1 ( obj_91591f13_4e95_4fc4_9c7d_1509c5034d9e o )  )  ( type_a5681967_6b66_42b2_af89_b0c1811f7c08_Class45 ( obj_91591f13_4e95_4fc4_9c7d_1509c5034d9e o )  ) ) ( type_a5681967_6b66_42b2_af89_b0c1811f7c08_Class12 ( obj_91591f13_4e95_4fc4_9c7d_1509c5034d9e o )  ) ) ( type_a5681967_6b66_42b2_af89_b0c1811f7c08_Class33 ( obj_91591f13_4e95_4fc4_9c7d_1509c5034d9e o )  ) ) ( type_a5681967_6b66_42b2_af89_b0c1811f7c08_Class22 ( obj_91591f13_4e95_4fc4_9c7d_1509c5034d9e o )  ) ) ( type_a5681967_6b66_42b2_af89_b0c1811f7c08_Class39 ( obj_91591f13_4e95_4fc4_9c7d_1509c5034d9e o )  ) )):named c1))
(assert (! (exists ((o Int)) (and (and (and (and (and (and (and (and (and ( type_a5681967_6b66_42b2_af89_b0c1811f7c08_Class10 ( obj_91591f13_4e95_4fc4_9c7d_1509c5034d9e o )  )  ( type_a5681967_6b66_42b2_af89_b0c1811f7c08_Class45 ( obj_91591f13_4e95_4fc4_9c7d_1509c5034d9e o )  ) ) ( type_a5681967_6b66_42b2_af89_b0c1811f7c08_Class12 ( obj_91591f13_4e95_4fc4_9c7d_1509c5034d9e o )  ) ) ( type_a5681967_6b66_42b2_af89_b0c1811f7c08_Class55 ( obj_91591f13_4e95_4fc4_9c7d_1509c5034d9e o )  ) ) ( type_a5681967_6b66_42b2_af89_b0c1811f7c08_Class33 ( obj_91591f13_4e95_4fc4_9c7d_1509c5034d9e o )  ) ) ( type_a5681967_6b66_42b2_af89_b0c1811f7c08_Class22 ( obj_91591f13_4e95_4fc4_9c7d_1509c5034d9e o )  ) ) ( type_a5681967_6b66_42b2_af89_b0c1811f7c08_Class29 ( obj_91591f13_4e95_4fc4_9c7d_1509c5034d9e o )  ) ) ( type_a5681967_6b66_42b2_af89_b0c1811f7c08_Class39 ( obj_91591f13_4e95_4fc4_9c7d_1509c5034d9e o )  ) ) ( type_a5681967_6b66_42b2_af89_b0c1811f7c08_Class50 ( obj_91591f13_4e95_4fc4_9c7d_1509c5034d9e o )  ) ) ( type_a5681967_6b66_42b2_af89_b0c1811f7c08_Class41 ( obj_91591f13_4e95_4fc4_9c7d_1509c5034d9e o )  ) )):named c2))
(assert (! (exists ((o Int)) ( type_a5681967_6b66_42b2_af89_b0c1811f7c08_Class11 ( obj_91591f13_4e95_4fc4_9c7d_1509c5034d9e o )  ) ):named c3))
(assert (! (exists ((o Int)) (and (and (and ( type_a5681967_6b66_42b2_af89_b0c1811f7c08_Class12 ( obj_91591f13_4e95_4fc4_9c7d_1509c5034d9e o )  )  ( type_a5681967_6b66_42b2_af89_b0c1811f7c08_Class33 ( obj_91591f13_4e95_4fc4_9c7d_1509c5034d9e o )  ) ) ( type_a5681967_6b66_42b2_af89_b0c1811f7c08_Class22 ( obj_91591f13_4e95_4fc4_9c7d_1509c5034d9e o )  ) ) ( type_a5681967_6b66_42b2_af89_b0c1811f7c08_Class39 ( obj_91591f13_4e95_4fc4_9c7d_1509c5034d9e o )  ) )):named c4))
(assert (! (exists ((o Int)) (and (and (and (and (and (and (and (and (and ( type_a5681967_6b66_42b2_af89_b0c1811f7c08_Class13 ( obj_91591f13_4e95_4fc4_9c7d_1509c5034d9e o )  )  ( type_a5681967_6b66_42b2_af89_b0c1811f7c08_Class45 ( obj_91591f13_4e95_4fc4_9c7d_1509c5034d9e o )  ) ) ( type_a5681967_6b66_42b2_af89_b0c1811f7c08_Class12 ( obj_91591f13_4e95_4fc4_9c7d_1509c5034d9e o )  ) ) ( type_a5681967_6b66_42b2_af89_b0c1811f7c08_Class55 ( obj_91591f13_4e95_4fc4_9c7d_1509c5034d9e o )  ) ) ( type_a5681967_6b66_42b2_af89_b0c1811f7c08_Class33 ( obj_91591f13_4e95_4fc4_9c7d_1509c5034d9e o )  ) ) ( type_a5681967_6b66_42b2_af89_b0c1811f7c08_Class22 ( obj_91591f13_4e95_4fc4_9c7d_1509c5034d9e o )  ) ) ( type_a5681967_6b66_42b2_af89_b0c1811f7c08_Class29 ( obj_91591f13_4e95_4fc4_9c7d_1509c5034d9e o )  ) ) ( type_a5681967_6b66_42b2_af89_b0c1811f7c08_Class39 ( obj_91591f13_4e95_4fc4_9c7d_1509c5034d9e o )  ) ) ( type_a5681967_6b66_42b2_af89_b0c1811f7c08_Class50 ( obj_91591f13_4e95_4fc4_9c7d_1509c5034d9e o )  ) ) ( type_a5681967_6b66_42b2_af89_b0c1811f7c08_Class41 ( obj_91591f13_4e95_4fc4_9c7d_1509c5034d9e o )  ) )):named c5))
(assert (! (exists ((o Int)) (and (and (and (and (and (and (and (and (and ( type_a5681967_6b66_42b2_af89_b0c1811f7c08_Class14 ( obj_91591f13_4e95_4fc4_9c7d_1509c5034d9e o )  )  ( type_a5681967_6b66_42b2_af89_b0c1811f7c08_Class45 ( obj_91591f13_4e95_4fc4_9c7d_1509c5034d9e o )  ) ) ( type_a5681967_6b66_42b2_af89_b0c1811f7c08_Class12 ( obj_91591f13_4e95_4fc4_9c7d_1509c5034d9e o )  ) ) ( type_a5681967_6b66_42b2_af89_b0c1811f7c08_Class55 ( obj_91591f13_4e95_4fc4_9c7d_1509c5034d9e o )  ) ) ( type_a5681967_6b66_42b2_af89_b0c1811f7c08_Class33 ( obj_91591f13_4e95_4fc4_9c7d_1509c5034d9e o )  ) ) ( type_a5681967_6b66_42b2_af89_b0c1811f7c08_Class22 ( obj_91591f13_4e95_4fc4_9c7d_1509c5034d9e o )  ) ) ( type_a5681967_6b66_42b2_af89_b0c1811f7c08_Class29 ( obj_91591f13_4e95_4fc4_9c7d_1509c5034d9e o )  ) ) ( type_a5681967_6b66_42b2_af89_b0c1811f7c08_Class39 ( obj_91591f13_4e95_4fc4_9c7d_1509c5034d9e o )  ) ) ( type_a5681967_6b66_42b2_af89_b0c1811f7c08_Class50 ( obj_91591f13_4e95_4fc4_9c7d_1509c5034d9e o )  ) ) ( type_a5681967_6b66_42b2_af89_b0c1811f7c08_Class41 ( obj_91591f13_4e95_4fc4_9c7d_1509c5034d9e o )  ) )):named c6))
(assert (! (exists ((o Int)) ( type_a5681967_6b66_42b2_af89_b0c1811f7c08_Class15 ( obj_91591f13_4e95_4fc4_9c7d_1509c5034d9e o )  ) ):named c7))
(assert (! (exists ((o Int)) (and (and (and (and (and ( type_a5681967_6b66_42b2_af89_b0c1811f7c08_Class16 ( obj_91591f13_4e95_4fc4_9c7d_1509c5034d9e o )  )  ( type_a5681967_6b66_42b2_af89_b0c1811f7c08_Class45 ( obj_91591f13_4e95_4fc4_9c7d_1509c5034d9e o )  ) ) ( type_a5681967_6b66_42b2_af89_b0c1811f7c08_Class12 ( obj_91591f13_4e95_4fc4_9c7d_1509c5034d9e o )  ) ) ( type_a5681967_6b66_42b2_af89_b0c1811f7c08_Class33 ( obj_91591f13_4e95_4fc4_9c7d_1509c5034d9e o )  ) ) ( type_a5681967_6b66_42b2_af89_b0c1811f7c08_Class22 ( obj_91591f13_4e95_4fc4_9c7d_1509c5034d9e o )  ) ) ( type_a5681967_6b66_42b2_af89_b0c1811f7c08_Class39 ( obj_91591f13_4e95_4fc4_9c7d_1509c5034d9e o )  ) )):named c8))
(assert (! (exists ((o Int)) ( type_a5681967_6b66_42b2_af89_b0c1811f7c08_Class17 ( obj_91591f13_4e95_4fc4_9c7d_1509c5034d9e o )  ) ):named c9))
(assert (! (exists ((o Int)) (and (and (and ( type_a5681967_6b66_42b2_af89_b0c1811f7c08_Class18 ( obj_91591f13_4e95_4fc4_9c7d_1509c5034d9e o )  )  ( type_a5681967_6b66_42b2_af89_b0c1811f7c08_Class25 ( obj_91591f13_4e95_4fc4_9c7d_1509c5034d9e o )  ) ) ( type_a5681967_6b66_42b2_af89_b0c1811f7c08_Class24 ( obj_91591f13_4e95_4fc4_9c7d_1509c5034d9e o )  ) ) ( type_a5681967_6b66_42b2_af89_b0c1811f7c08_Class39 ( obj_91591f13_4e95_4fc4_9c7d_1509c5034d9e o )  ) )):named c10))
(assert (! (exists ((o Int)) (and (and (and (and (and (and (and (and (and ( type_a5681967_6b66_42b2_af89_b0c1811f7c08_Class19 ( obj_91591f13_4e95_4fc4_9c7d_1509c5034d9e o )  )  ( type_a5681967_6b66_42b2_af89_b0c1811f7c08_Class45 ( obj_91591f13_4e95_4fc4_9c7d_1509c5034d9e o )  ) ) ( type_a5681967_6b66_42b2_af89_b0c1811f7c08_Class12 ( obj_91591f13_4e95_4fc4_9c7d_1509c5034d9e o )  ) ) ( type_a5681967_6b66_42b2_af89_b0c1811f7c08_Class55 ( obj_91591f13_4e95_4fc4_9c7d_1509c5034d9e o )  ) ) ( type_a5681967_6b66_42b2_af89_b0c1811f7c08_Class33 ( obj_91591f13_4e95_4fc4_9c7d_1509c5034d9e o )  ) ) ( type_a5681967_6b66_42b2_af89_b0c1811f7c08_Class22 ( obj_91591f13_4e95_4fc4_9c7d_1509c5034d9e o )  ) ) ( type_a5681967_6b66_42b2_af89_b0c1811f7c08_Class29 ( obj_91591f13_4e95_4fc4_9c7d_1509c5034d9e o )  ) ) ( type_a5681967_6b66_42b2_af89_b0c1811f7c08_Class39 ( obj_91591f13_4e95_4fc4_9c7d_1509c5034d9e o )  ) ) ( type_a5681967_6b66_42b2_af89_b0c1811f7c08_Class50 ( obj_91591f13_4e95_4fc4_9c7d_1509c5034d9e o )  ) ) ( type_a5681967_6b66_42b2_af89_b0c1811f7c08_Class41 ( obj_91591f13_4e95_4fc4_9c7d_1509c5034d9e o )  ) )):named c11))
(assert (! (exists ((o Int)) ( type_a5681967_6b66_42b2_af89_b0c1811f7c08_Class2 ( obj_91591f13_4e95_4fc4_9c7d_1509c5034d9e o )  ) ):named c12))
(assert (! (exists ((o Int)) ( type_a5681967_6b66_42b2_af89_b0c1811f7c08_Class20 ( obj_91591f13_4e95_4fc4_9c7d_1509c5034d9e o )  ) ):named c13))
(assert (! (exists ((o Int)) (and (and (and (and (and (and (and (and (and ( type_a5681967_6b66_42b2_af89_b0c1811f7c08_Class21 ( obj_91591f13_4e95_4fc4_9c7d_1509c5034d9e o )  )  ( type_a5681967_6b66_42b2_af89_b0c1811f7c08_Class45 ( obj_91591f13_4e95_4fc4_9c7d_1509c5034d9e o )  ) ) ( type_a5681967_6b66_42b2_af89_b0c1811f7c08_Class12 ( obj_91591f13_4e95_4fc4_9c7d_1509c5034d9e o )  ) ) ( type_a5681967_6b66_42b2_af89_b0c1811f7c08_Class33 ( obj_91591f13_4e95_4fc4_9c7d_1509c5034d9e o )  ) ) ( type_a5681967_6b66_42b2_af89_b0c1811f7c08_Class22 ( obj_91591f13_4e95_4fc4_9c7d_1509c5034d9e o )  ) ) ( type_a5681967_6b66_42b2_af89_b0c1811f7c08_Class16 ( obj_91591f13_4e95_4fc4_9c7d_1509c5034d9e o )  ) ) ( type_a5681967_6b66_42b2_af89_b0c1811f7c08_Class29 ( obj_91591f13_4e95_4fc4_9c7d_1509c5034d9e o )  ) ) ( type_a5681967_6b66_42b2_af89_b0c1811f7c08_Class39 ( obj_91591f13_4e95_4fc4_9c7d_1509c5034d9e o )  ) ) ( type_a5681967_6b66_42b2_af89_b0c1811f7c08_Class41 ( obj_91591f13_4e95_4fc4_9c7d_1509c5034d9e o )  ) ) ( type_a5681967_6b66_42b2_af89_b0c1811f7c08_Class51 ( obj_91591f13_4e95_4fc4_9c7d_1509c5034d9e o )  ) )):named c14))
(assert (! (exists ((o Int)) (and ( type_a5681967_6b66_42b2_af89_b0c1811f7c08_Class22 ( obj_91591f13_4e95_4fc4_9c7d_1509c5034d9e o )  )  ( type_a5681967_6b66_42b2_af89_b0c1811f7c08_Class39 ( obj_91591f13_4e95_4fc4_9c7d_1509c5034d9e o )  ) )):named c15))
(assert (! (exists ((o Int)) (and (and (and (and ( type_a5681967_6b66_42b2_af89_b0c1811f7c08_Class23 ( obj_91591f13_4e95_4fc4_9c7d_1509c5034d9e o )  )  ( type_a5681967_6b66_42b2_af89_b0c1811f7c08_Class25 ( obj_91591f13_4e95_4fc4_9c7d_1509c5034d9e o )  ) ) ( type_a5681967_6b66_42b2_af89_b0c1811f7c08_Class24 ( obj_91591f13_4e95_4fc4_9c7d_1509c5034d9e o )  ) ) ( type_a5681967_6b66_42b2_af89_b0c1811f7c08_Class39 ( obj_91591f13_4e95_4fc4_9c7d_1509c5034d9e o )  ) ) ( type_a5681967_6b66_42b2_af89_b0c1811f7c08_Class5 ( obj_91591f13_4e95_4fc4_9c7d_1509c5034d9e o )  ) )):named c16))
(assert (! (exists ((o Int)) (and (and ( type_a5681967_6b66_42b2_af89_b0c1811f7c08_Class24 ( obj_91591f13_4e95_4fc4_9c7d_1509c5034d9e o )  )  ( type_a5681967_6b66_42b2_af89_b0c1811f7c08_Class25 ( obj_91591f13_4e95_4fc4_9c7d_1509c5034d9e o )  ) ) ( type_a5681967_6b66_42b2_af89_b0c1811f7c08_Class39 ( obj_91591f13_4e95_4fc4_9c7d_1509c5034d9e o )  ) )):named c17))
(assert (! (exists ((o Int)) (and ( type_a5681967_6b66_42b2_af89_b0c1811f7c08_Class25 ( obj_91591f13_4e95_4fc4_9c7d_1509c5034d9e o )  )  ( type_a5681967_6b66_42b2_af89_b0c1811f7c08_Class39 ( obj_91591f13_4e95_4fc4_9c7d_1509c5034d9e o )  ) )):named c18))
(assert (! (exists ((o Int)) ( type_a5681967_6b66_42b2_af89_b0c1811f7c08_Class26 ( obj_91591f13_4e95_4fc4_9c7d_1509c5034d9e o )  ) ):named c19))
(assert (! (exists ((o Int)) ( type_a5681967_6b66_42b2_af89_b0c1811f7c08_Class27 ( obj_91591f13_4e95_4fc4_9c7d_1509c5034d9e o )  ) ):named c20))
(assert (! (exists ((o Int)) (and (and (and (and (and (and (and ( type_a5681967_6b66_42b2_af89_b0c1811f7c08_Class28 ( obj_91591f13_4e95_4fc4_9c7d_1509c5034d9e o )  )  ( type_a5681967_6b66_42b2_af89_b0c1811f7c08_Class45 ( obj_91591f13_4e95_4fc4_9c7d_1509c5034d9e o )  ) ) ( type_a5681967_6b66_42b2_af89_b0c1811f7c08_Class12 ( obj_91591f13_4e95_4fc4_9c7d_1509c5034d9e o )  ) ) ( type_a5681967_6b66_42b2_af89_b0c1811f7c08_Class33 ( obj_91591f13_4e95_4fc4_9c7d_1509c5034d9e o )  ) ) ( type_a5681967_6b66_42b2_af89_b0c1811f7c08_Class22 ( obj_91591f13_4e95_4fc4_9c7d_1509c5034d9e o )  ) ) ( type_a5681967_6b66_42b2_af89_b0c1811f7c08_Class29 ( obj_91591f13_4e95_4fc4_9c7d_1509c5034d9e o )  ) ) ( type_a5681967_6b66_42b2_af89_b0c1811f7c08_Class39 ( obj_91591f13_4e95_4fc4_9c7d_1509c5034d9e o )  ) ) ( type_a5681967_6b66_42b2_af89_b0c1811f7c08_Class41 ( obj_91591f13_4e95_4fc4_9c7d_1509c5034d9e o )  ) )):named c21))
(assert (! (exists ((o Int)) (and (and (and (and (and (and ( type_a5681967_6b66_42b2_af89_b0c1811f7c08_Class29 ( obj_91591f13_4e95_4fc4_9c7d_1509c5034d9e o )  )  ( type_a5681967_6b66_42b2_af89_b0c1811f7c08_Class45 ( obj_91591f13_4e95_4fc4_9c7d_1509c5034d9e o )  ) ) ( type_a5681967_6b66_42b2_af89_b0c1811f7c08_Class12 ( obj_91591f13_4e95_4fc4_9c7d_1509c5034d9e o )  ) ) ( type_a5681967_6b66_42b2_af89_b0c1811f7c08_Class33 ( obj_91591f13_4e95_4fc4_9c7d_1509c5034d9e o )  ) ) ( type_a5681967_6b66_42b2_af89_b0c1811f7c08_Class22 ( obj_91591f13_4e95_4fc4_9c7d_1509c5034d9e o )  ) ) ( type_a5681967_6b66_42b2_af89_b0c1811f7c08_Class39 ( obj_91591f13_4e95_4fc4_9c7d_1509c5034d9e o )  ) ) ( type_a5681967_6b66_42b2_af89_b0c1811f7c08_Class41 ( obj_91591f13_4e95_4fc4_9c7d_1509c5034d9e o )  ) )):named c22))
(assert (! (exists ((o Int)) (and (and (and ( type_a5681967_6b66_42b2_af89_b0c1811f7c08_Class3 ( obj_91591f13_4e95_4fc4_9c7d_1509c5034d9e o )  )  ( type_a5681967_6b66_42b2_af89_b0c1811f7c08_Class25 ( obj_91591f13_4e95_4fc4_9c7d_1509c5034d9e o )  ) ) ( type_a5681967_6b66_42b2_af89_b0c1811f7c08_Class24 ( obj_91591f13_4e95_4fc4_9c7d_1509c5034d9e o )  ) ) ( type_a5681967_6b66_42b2_af89_b0c1811f7c08_Class39 ( obj_91591f13_4e95_4fc4_9c7d_1509c5034d9e o )  ) )):named c23))
(assert (! (exists ((o Int)) (and ( type_a5681967_6b66_42b2_af89_b0c1811f7c08_Class30 ( obj_91591f13_4e95_4fc4_9c7d_1509c5034d9e o )  )  ( type_a5681967_6b66_42b2_af89_b0c1811f7c08_Class39 ( obj_91591f13_4e95_4fc4_9c7d_1509c5034d9e o )  ) )):named c24))
(assert (! (exists ((o Int)) (and (and (and (and (and ( type_a5681967_6b66_42b2_af89_b0c1811f7c08_Class31 ( obj_91591f13_4e95_4fc4_9c7d_1509c5034d9e o )  )  ( type_a5681967_6b66_42b2_af89_b0c1811f7c08_Class45 ( obj_91591f13_4e95_4fc4_9c7d_1509c5034d9e o )  ) ) ( type_a5681967_6b66_42b2_af89_b0c1811f7c08_Class12 ( obj_91591f13_4e95_4fc4_9c7d_1509c5034d9e o )  ) ) ( type_a5681967_6b66_42b2_af89_b0c1811f7c08_Class33 ( obj_91591f13_4e95_4fc4_9c7d_1509c5034d9e o )  ) ) ( type_a5681967_6b66_42b2_af89_b0c1811f7c08_Class22 ( obj_91591f13_4e95_4fc4_9c7d_1509c5034d9e o )  ) ) ( type_a5681967_6b66_42b2_af89_b0c1811f7c08_Class39 ( obj_91591f13_4e95_4fc4_9c7d_1509c5034d9e o )  ) )):named c25))
(assert (! (exists ((o Int)) ( type_a5681967_6b66_42b2_af89_b0c1811f7c08_Class32 ( obj_91591f13_4e95_4fc4_9c7d_1509c5034d9e o )  ) ):named c26))
(assert (! (exists ((o Int)) (and (and ( type_a5681967_6b66_42b2_af89_b0c1811f7c08_Class33 ( obj_91591f13_4e95_4fc4_9c7d_1509c5034d9e o )  )  ( type_a5681967_6b66_42b2_af89_b0c1811f7c08_Class22 ( obj_91591f13_4e95_4fc4_9c7d_1509c5034d9e o )  ) ) ( type_a5681967_6b66_42b2_af89_b0c1811f7c08_Class39 ( obj_91591f13_4e95_4fc4_9c7d_1509c5034d9e o )  ) )):named c27))
(assert (! (exists ((o Int)) (and (and (and ( type_a5681967_6b66_42b2_af89_b0c1811f7c08_Class34 ( obj_91591f13_4e95_4fc4_9c7d_1509c5034d9e o )  )  ( type_a5681967_6b66_42b2_af89_b0c1811f7c08_Class25 ( obj_91591f13_4e95_4fc4_9c7d_1509c5034d9e o )  ) ) ( type_a5681967_6b66_42b2_af89_b0c1811f7c08_Class24 ( obj_91591f13_4e95_4fc4_9c7d_1509c5034d9e o )  ) ) ( type_a5681967_6b66_42b2_af89_b0c1811f7c08_Class39 ( obj_91591f13_4e95_4fc4_9c7d_1509c5034d9e o )  ) )):named c28))
(assert (! (exists ((o Int)) (and (and ( type_a5681967_6b66_42b2_af89_b0c1811f7c08_Class35 ( obj_91591f13_4e95_4fc4_9c7d_1509c5034d9e o )  )  ( type_a5681967_6b66_42b2_af89_b0c1811f7c08_Class39 ( obj_91591f13_4e95_4fc4_9c7d_1509c5034d9e o )  ) ) ( type_a5681967_6b66_42b2_af89_b0c1811f7c08_Class30 ( obj_91591f13_4e95_4fc4_9c7d_1509c5034d9e o )  ) )):named c29))
(assert (! (exists ((o Int)) ( type_a5681967_6b66_42b2_af89_b0c1811f7c08_Class36 ( obj_91591f13_4e95_4fc4_9c7d_1509c5034d9e o )  ) ):named c30))
(assert (! (exists ((o Int)) ( type_a5681967_6b66_42b2_af89_b0c1811f7c08_Class37 ( obj_91591f13_4e95_4fc4_9c7d_1509c5034d9e o )  ) ):named c31))
(assert (! (exists ((o Int)) ( type_a5681967_6b66_42b2_af89_b0c1811f7c08_Class38 ( obj_91591f13_4e95_4fc4_9c7d_1509c5034d9e o )  ) ):named c32))
(assert (! (exists ((o Int)) ( type_a5681967_6b66_42b2_af89_b0c1811f7c08_Class39 ( obj_91591f13_4e95_4fc4_9c7d_1509c5034d9e o )  ) ):named c33))
(assert (! (exists ((o Int)) ( type_a5681967_6b66_42b2_af89_b0c1811f7c08_Class4 ( obj_91591f13_4e95_4fc4_9c7d_1509c5034d9e o )  ) ):named c34))
(assert (! (exists ((o Int)) (and (and (and (and (and (and (and (and (and ( type_a5681967_6b66_42b2_af89_b0c1811f7c08_Class40 ( obj_91591f13_4e95_4fc4_9c7d_1509c5034d9e o )  )  ( type_a5681967_6b66_42b2_af89_b0c1811f7c08_Class45 ( obj_91591f13_4e95_4fc4_9c7d_1509c5034d9e o )  ) ) ( type_a5681967_6b66_42b2_af89_b0c1811f7c08_Class12 ( obj_91591f13_4e95_4fc4_9c7d_1509c5034d9e o )  ) ) ( type_a5681967_6b66_42b2_af89_b0c1811f7c08_Class55 ( obj_91591f13_4e95_4fc4_9c7d_1509c5034d9e o )  ) ) ( type_a5681967_6b66_42b2_af89_b0c1811f7c08_Class33 ( obj_91591f13_4e95_4fc4_9c7d_1509c5034d9e o )  ) ) ( type_a5681967_6b66_42b2_af89_b0c1811f7c08_Class22 ( obj_91591f13_4e95_4fc4_9c7d_1509c5034d9e o )  ) ) ( type_a5681967_6b66_42b2_af89_b0c1811f7c08_Class29 ( obj_91591f13_4e95_4fc4_9c7d_1509c5034d9e o )  ) ) ( type_a5681967_6b66_42b2_af89_b0c1811f7c08_Class39 ( obj_91591f13_4e95_4fc4_9c7d_1509c5034d9e o )  ) ) ( type_a5681967_6b66_42b2_af89_b0c1811f7c08_Class50 ( obj_91591f13_4e95_4fc4_9c7d_1509c5034d9e o )  ) ) ( type_a5681967_6b66_42b2_af89_b0c1811f7c08_Class41 ( obj_91591f13_4e95_4fc4_9c7d_1509c5034d9e o )  ) )):named c35))
(assert (! (exists ((o Int)) (and (and (and (and (and ( type_a5681967_6b66_42b2_af89_b0c1811f7c08_Class41 ( obj_91591f13_4e95_4fc4_9c7d_1509c5034d9e o )  )  ( type_a5681967_6b66_42b2_af89_b0c1811f7c08_Class45 ( obj_91591f13_4e95_4fc4_9c7d_1509c5034d9e o )  ) ) ( type_a5681967_6b66_42b2_af89_b0c1811f7c08_Class12 ( obj_91591f13_4e95_4fc4_9c7d_1509c5034d9e o )  ) ) ( type_a5681967_6b66_42b2_af89_b0c1811f7c08_Class33 ( obj_91591f13_4e95_4fc4_9c7d_1509c5034d9e o )  ) ) ( type_a5681967_6b66_42b2_af89_b0c1811f7c08_Class22 ( obj_91591f13_4e95_4fc4_9c7d_1509c5034d9e o )  ) ) ( type_a5681967_6b66_42b2_af89_b0c1811f7c08_Class39 ( obj_91591f13_4e95_4fc4_9c7d_1509c5034d9e o )  ) )):named c36))
(assert (! (exists ((o Int)) (and ( type_a5681967_6b66_42b2_af89_b0c1811f7c08_Class42 ( obj_91591f13_4e95_4fc4_9c7d_1509c5034d9e o )  )  ( type_a5681967_6b66_42b2_af89_b0c1811f7c08_Class39 ( obj_91591f13_4e95_4fc4_9c7d_1509c5034d9e o )  ) )):named c37))
(assert (! (exists ((o Int)) ( type_a5681967_6b66_42b2_af89_b0c1811f7c08_Class43 ( obj_91591f13_4e95_4fc4_9c7d_1509c5034d9e o )  ) ):named c38))
(assert (! (exists ((o Int)) (and (and (and (and (and (and (and ( type_a5681967_6b66_42b2_af89_b0c1811f7c08_Class44 ( obj_91591f13_4e95_4fc4_9c7d_1509c5034d9e o )  )  ( type_a5681967_6b66_42b2_af89_b0c1811f7c08_Class45 ( obj_91591f13_4e95_4fc4_9c7d_1509c5034d9e o )  ) ) ( type_a5681967_6b66_42b2_af89_b0c1811f7c08_Class12 ( obj_91591f13_4e95_4fc4_9c7d_1509c5034d9e o )  ) ) ( type_a5681967_6b66_42b2_af89_b0c1811f7c08_Class33 ( obj_91591f13_4e95_4fc4_9c7d_1509c5034d9e o )  ) ) ( type_a5681967_6b66_42b2_af89_b0c1811f7c08_Class22 ( obj_91591f13_4e95_4fc4_9c7d_1509c5034d9e o )  ) ) ( type_a5681967_6b66_42b2_af89_b0c1811f7c08_Class29 ( obj_91591f13_4e95_4fc4_9c7d_1509c5034d9e o )  ) ) ( type_a5681967_6b66_42b2_af89_b0c1811f7c08_Class39 ( obj_91591f13_4e95_4fc4_9c7d_1509c5034d9e o )  ) ) ( type_a5681967_6b66_42b2_af89_b0c1811f7c08_Class41 ( obj_91591f13_4e95_4fc4_9c7d_1509c5034d9e o )  ) )):named c39))
(assert (! (exists ((o Int)) (and (and (and (and ( type_a5681967_6b66_42b2_af89_b0c1811f7c08_Class45 ( obj_91591f13_4e95_4fc4_9c7d_1509c5034d9e o )  )  ( type_a5681967_6b66_42b2_af89_b0c1811f7c08_Class12 ( obj_91591f13_4e95_4fc4_9c7d_1509c5034d9e o )  ) ) ( type_a5681967_6b66_42b2_af89_b0c1811f7c08_Class33 ( obj_91591f13_4e95_4fc4_9c7d_1509c5034d9e o )  ) ) ( type_a5681967_6b66_42b2_af89_b0c1811f7c08_Class22 ( obj_91591f13_4e95_4fc4_9c7d_1509c5034d9e o )  ) ) ( type_a5681967_6b66_42b2_af89_b0c1811f7c08_Class39 ( obj_91591f13_4e95_4fc4_9c7d_1509c5034d9e o )  ) )):named c40))
(assert (! (exists ((o Int)) (and (and ( type_a5681967_6b66_42b2_af89_b0c1811f7c08_Class46 ( obj_91591f13_4e95_4fc4_9c7d_1509c5034d9e o )  )  ( type_a5681967_6b66_42b2_af89_b0c1811f7c08_Class39 ( obj_91591f13_4e95_4fc4_9c7d_1509c5034d9e o )  ) ) ( type_a5681967_6b66_42b2_af89_b0c1811f7c08_Class5 ( obj_91591f13_4e95_4fc4_9c7d_1509c5034d9e o )  ) )):named c41))
(assert (! (exists ((o Int)) ( type_a5681967_6b66_42b2_af89_b0c1811f7c08_Class47 ( obj_91591f13_4e95_4fc4_9c7d_1509c5034d9e o )  ) ):named c42))
(assert (! (exists ((o Int)) (and (and (and (and (and (and (and (and (and ( type_a5681967_6b66_42b2_af89_b0c1811f7c08_Class48 ( obj_91591f13_4e95_4fc4_9c7d_1509c5034d9e o )  )  ( type_a5681967_6b66_42b2_af89_b0c1811f7c08_Class45 ( obj_91591f13_4e95_4fc4_9c7d_1509c5034d9e o )  ) ) ( type_a5681967_6b66_42b2_af89_b0c1811f7c08_Class12 ( obj_91591f13_4e95_4fc4_9c7d_1509c5034d9e o )  ) ) ( type_a5681967_6b66_42b2_af89_b0c1811f7c08_Class55 ( obj_91591f13_4e95_4fc4_9c7d_1509c5034d9e o )  ) ) ( type_a5681967_6b66_42b2_af89_b0c1811f7c08_Class33 ( obj_91591f13_4e95_4fc4_9c7d_1509c5034d9e o )  ) ) ( type_a5681967_6b66_42b2_af89_b0c1811f7c08_Class22 ( obj_91591f13_4e95_4fc4_9c7d_1509c5034d9e o )  ) ) ( type_a5681967_6b66_42b2_af89_b0c1811f7c08_Class29 ( obj_91591f13_4e95_4fc4_9c7d_1509c5034d9e o )  ) ) ( type_a5681967_6b66_42b2_af89_b0c1811f7c08_Class39 ( obj_91591f13_4e95_4fc4_9c7d_1509c5034d9e o )  ) ) ( type_a5681967_6b66_42b2_af89_b0c1811f7c08_Class50 ( obj_91591f13_4e95_4fc4_9c7d_1509c5034d9e o )  ) ) ( type_a5681967_6b66_42b2_af89_b0c1811f7c08_Class41 ( obj_91591f13_4e95_4fc4_9c7d_1509c5034d9e o )  ) )):named c43))
(assert (! (exists ((o Int)) (and (and (and (and (and (and (and (and (and ( type_a5681967_6b66_42b2_af89_b0c1811f7c08_Class49 ( obj_91591f13_4e95_4fc4_9c7d_1509c5034d9e o )  )  ( type_a5681967_6b66_42b2_af89_b0c1811f7c08_Class45 ( obj_91591f13_4e95_4fc4_9c7d_1509c5034d9e o )  ) ) ( type_a5681967_6b66_42b2_af89_b0c1811f7c08_Class12 ( obj_91591f13_4e95_4fc4_9c7d_1509c5034d9e o )  ) ) ( type_a5681967_6b66_42b2_af89_b0c1811f7c08_Class55 ( obj_91591f13_4e95_4fc4_9c7d_1509c5034d9e o )  ) ) ( type_a5681967_6b66_42b2_af89_b0c1811f7c08_Class33 ( obj_91591f13_4e95_4fc4_9c7d_1509c5034d9e o )  ) ) ( type_a5681967_6b66_42b2_af89_b0c1811f7c08_Class22 ( obj_91591f13_4e95_4fc4_9c7d_1509c5034d9e o )  ) ) ( type_a5681967_6b66_42b2_af89_b0c1811f7c08_Class29 ( obj_91591f13_4e95_4fc4_9c7d_1509c5034d9e o )  ) ) ( type_a5681967_6b66_42b2_af89_b0c1811f7c08_Class39 ( obj_91591f13_4e95_4fc4_9c7d_1509c5034d9e o )  ) ) ( type_a5681967_6b66_42b2_af89_b0c1811f7c08_Class50 ( obj_91591f13_4e95_4fc4_9c7d_1509c5034d9e o )  ) ) ( type_a5681967_6b66_42b2_af89_b0c1811f7c08_Class41 ( obj_91591f13_4e95_4fc4_9c7d_1509c5034d9e o )  ) )):named c44))
(assert (! (exists ((o Int)) (and ( type_a5681967_6b66_42b2_af89_b0c1811f7c08_Class5 ( obj_91591f13_4e95_4fc4_9c7d_1509c5034d9e o )  )  ( type_a5681967_6b66_42b2_af89_b0c1811f7c08_Class39 ( obj_91591f13_4e95_4fc4_9c7d_1509c5034d9e o )  ) )):named c45))
(assert (! (exists ((o Int)) (and (and (and (and (and (and (and (and ( type_a5681967_6b66_42b2_af89_b0c1811f7c08_Class50 ( obj_91591f13_4e95_4fc4_9c7d_1509c5034d9e o )  )  ( type_a5681967_6b66_42b2_af89_b0c1811f7c08_Class45 ( obj_91591f13_4e95_4fc4_9c7d_1509c5034d9e o )  ) ) ( type_a5681967_6b66_42b2_af89_b0c1811f7c08_Class12 ( obj_91591f13_4e95_4fc4_9c7d_1509c5034d9e o )  ) ) ( type_a5681967_6b66_42b2_af89_b0c1811f7c08_Class55 ( obj_91591f13_4e95_4fc4_9c7d_1509c5034d9e o )  ) ) ( type_a5681967_6b66_42b2_af89_b0c1811f7c08_Class33 ( obj_91591f13_4e95_4fc4_9c7d_1509c5034d9e o )  ) ) ( type_a5681967_6b66_42b2_af89_b0c1811f7c08_Class22 ( obj_91591f13_4e95_4fc4_9c7d_1509c5034d9e o )  ) ) ( type_a5681967_6b66_42b2_af89_b0c1811f7c08_Class29 ( obj_91591f13_4e95_4fc4_9c7d_1509c5034d9e o )  ) ) ( type_a5681967_6b66_42b2_af89_b0c1811f7c08_Class39 ( obj_91591f13_4e95_4fc4_9c7d_1509c5034d9e o )  ) ) ( type_a5681967_6b66_42b2_af89_b0c1811f7c08_Class41 ( obj_91591f13_4e95_4fc4_9c7d_1509c5034d9e o )  ) )):named c46))
(assert (! (exists ((o Int)) (and (and (and (and (and (and ( type_a5681967_6b66_42b2_af89_b0c1811f7c08_Class51 ( obj_91591f13_4e95_4fc4_9c7d_1509c5034d9e o )  )  ( type_a5681967_6b66_42b2_af89_b0c1811f7c08_Class45 ( obj_91591f13_4e95_4fc4_9c7d_1509c5034d9e o )  ) ) ( type_a5681967_6b66_42b2_af89_b0c1811f7c08_Class12 ( obj_91591f13_4e95_4fc4_9c7d_1509c5034d9e o )  ) ) ( type_a5681967_6b66_42b2_af89_b0c1811f7c08_Class33 ( obj_91591f13_4e95_4fc4_9c7d_1509c5034d9e o )  ) ) ( type_a5681967_6b66_42b2_af89_b0c1811f7c08_Class22 ( obj_91591f13_4e95_4fc4_9c7d_1509c5034d9e o )  ) ) ( type_a5681967_6b66_42b2_af89_b0c1811f7c08_Class16 ( obj_91591f13_4e95_4fc4_9c7d_1509c5034d9e o )  ) ) ( type_a5681967_6b66_42b2_af89_b0c1811f7c08_Class39 ( obj_91591f13_4e95_4fc4_9c7d_1509c5034d9e o )  ) )):named c47))
(assert (! (exists ((o Int)) (and (and (and (and (and ( type_a5681967_6b66_42b2_af89_b0c1811f7c08_Class52 ( obj_91591f13_4e95_4fc4_9c7d_1509c5034d9e o )  )  ( type_a5681967_6b66_42b2_af89_b0c1811f7c08_Class45 ( obj_91591f13_4e95_4fc4_9c7d_1509c5034d9e o )  ) ) ( type_a5681967_6b66_42b2_af89_b0c1811f7c08_Class12 ( obj_91591f13_4e95_4fc4_9c7d_1509c5034d9e o )  ) ) ( type_a5681967_6b66_42b2_af89_b0c1811f7c08_Class33 ( obj_91591f13_4e95_4fc4_9c7d_1509c5034d9e o )  ) ) ( type_a5681967_6b66_42b2_af89_b0c1811f7c08_Class22 ( obj_91591f13_4e95_4fc4_9c7d_1509c5034d9e o )  ) ) ( type_a5681967_6b66_42b2_af89_b0c1811f7c08_Class39 ( obj_91591f13_4e95_4fc4_9c7d_1509c5034d9e o )  ) )):named c48))
(assert (! (exists ((o Int)) ( type_a5681967_6b66_42b2_af89_b0c1811f7c08_Class53 ( obj_91591f13_4e95_4fc4_9c7d_1509c5034d9e o )  ) ):named c49))
(assert (! (exists ((o Int)) ( type_a5681967_6b66_42b2_af89_b0c1811f7c08_Class54 ( obj_91591f13_4e95_4fc4_9c7d_1509c5034d9e o )  ) ):named c50))
(assert (! (exists ((o Int)) (and (and (and (and (and (and (and ( type_a5681967_6b66_42b2_af89_b0c1811f7c08_Class55 ( obj_91591f13_4e95_4fc4_9c7d_1509c5034d9e o )  )  ( type_a5681967_6b66_42b2_af89_b0c1811f7c08_Class45 ( obj_91591f13_4e95_4fc4_9c7d_1509c5034d9e o )  ) ) ( type_a5681967_6b66_42b2_af89_b0c1811f7c08_Class12 ( obj_91591f13_4e95_4fc4_9c7d_1509c5034d9e o )  ) ) ( type_a5681967_6b66_42b2_af89_b0c1811f7c08_Class33 ( obj_91591f13_4e95_4fc4_9c7d_1509c5034d9e o )  ) ) ( type_a5681967_6b66_42b2_af89_b0c1811f7c08_Class22 ( obj_91591f13_4e95_4fc4_9c7d_1509c5034d9e o )  ) ) ( type_a5681967_6b66_42b2_af89_b0c1811f7c08_Class29 ( obj_91591f13_4e95_4fc4_9c7d_1509c5034d9e o )  ) ) ( type_a5681967_6b66_42b2_af89_b0c1811f7c08_Class39 ( obj_91591f13_4e95_4fc4_9c7d_1509c5034d9e o )  ) ) ( type_a5681967_6b66_42b2_af89_b0c1811f7c08_Class41 ( obj_91591f13_4e95_4fc4_9c7d_1509c5034d9e o )  ) )):named c51))
(assert (! (exists ((o Int)) ( type_a5681967_6b66_42b2_af89_b0c1811f7c08_Class6 ( obj_91591f13_4e95_4fc4_9c7d_1509c5034d9e o )  ) ):named c52))
(assert (! (exists ((o Int)) (and (and (and (and (and (and (and (and (and ( type_a5681967_6b66_42b2_af89_b0c1811f7c08_Class7 ( obj_91591f13_4e95_4fc4_9c7d_1509c5034d9e o )  )  ( type_a5681967_6b66_42b2_af89_b0c1811f7c08_Class45 ( obj_91591f13_4e95_4fc4_9c7d_1509c5034d9e o )  ) ) ( type_a5681967_6b66_42b2_af89_b0c1811f7c08_Class12 ( obj_91591f13_4e95_4fc4_9c7d_1509c5034d9e o )  ) ) ( type_a5681967_6b66_42b2_af89_b0c1811f7c08_Class55 ( obj_91591f13_4e95_4fc4_9c7d_1509c5034d9e o )  ) ) ( type_a5681967_6b66_42b2_af89_b0c1811f7c08_Class33 ( obj_91591f13_4e95_4fc4_9c7d_1509c5034d9e o )  ) ) ( type_a5681967_6b66_42b2_af89_b0c1811f7c08_Class22 ( obj_91591f13_4e95_4fc4_9c7d_1509c5034d9e o )  ) ) ( type_a5681967_6b66_42b2_af89_b0c1811f7c08_Class29 ( obj_91591f13_4e95_4fc4_9c7d_1509c5034d9e o )  ) ) ( type_a5681967_6b66_42b2_af89_b0c1811f7c08_Class39 ( obj_91591f13_4e95_4fc4_9c7d_1509c5034d9e o )  ) ) ( type_a5681967_6b66_42b2_af89_b0c1811f7c08_Class50 ( obj_91591f13_4e95_4fc4_9c7d_1509c5034d9e o )  ) ) ( type_a5681967_6b66_42b2_af89_b0c1811f7c08_Class41 ( obj_91591f13_4e95_4fc4_9c7d_1509c5034d9e o )  ) )):named c53))
(assert (! (exists ((o Int)) (and ( type_a5681967_6b66_42b2_af89_b0c1811f7c08_Class8 ( obj_91591f13_4e95_4fc4_9c7d_1509c5034d9e o )  )  ( type_a5681967_6b66_42b2_af89_b0c1811f7c08_Class39 ( obj_91591f13_4e95_4fc4_9c7d_1509c5034d9e o )  ) )):named c54))
(assert (! (exists ((o Int)) ( type_a5681967_6b66_42b2_af89_b0c1811f7c08_Class9 ( obj_91591f13_4e95_4fc4_9c7d_1509c5034d9e o )  ) ):named c55))

 ;end of formula 